c User generated cnf file
p cnf 14 73
5 4 -3 0 
1 14 -5 0 
10 -14 14 0 
10 -9 4 0 
10 -5 6 0 
5 -10 4 0 
14 8 -12 0 
2 -11 4 0 
3 -11 7 0 
4 13 -12 0 
2 13 -2 0 
6 6 -4 0 
4 3 -2 0 
10 7 -9 0 
3 12 -4 0 
1 9 -10 0 
12 4 -13 0 
11 -11 8 0 
12 5 -1 0 
1 11 -11 0 
1 -13 14 0 
9 4 -4 0 
7 -7 3 0 
13 10 -9 0 
9 13 -7 0 
5 -8 12 0 
7 -11 6 0 
8 -10 11 0 
2 7 -13 0 
7 4 -2 0 
11 -13 7 0 
12 3 -4 0 
3 -3 1 0 
10 -3 7 0 
5 2 -13 0 
5 3 -9 0 
1 6 -14 0 
7 -10 1 0 
4 10 -2 0 
2 5 -11 0 
10 -2 4 0 
3 -13 3 0 
7 -5 8 0 
8 3 -1 0 
10 -14 8 0 
13 8 -1 0 
13 13 -11 0 
2 2 -2 0 
2 -13 10 0 
4 -7 10 0 
6 6 -4 0 
14 -3 6 0 
14 -1 8 0 
11 -5 4 0 
2 14 -4 0 
13 -14 6 0 
5 -12 14 0 
3 -11 14 0 
12 -5 6 0 
14 -10 13 0 
5 6 -7 0 
14 -12 6 0 
3 10 -14 0 
4 -9 9 0 
8 12 -13 0 
11 -7 12 0 
10 8 -13 0 
7 14 -2 0 
7 6 -7 0 
3 7 -9 0 
14 -14 10 0 
4 4 -1 0 
7 -4 7 0 
